c FILE: i160-213

c SOURCE: From steinlib

c DESCRIPTION: Steinlib instance with 160 nodes and 812 edges.

p edge 160 812
e 1 2
e 1 44
e 1 54
e 1 60
e 1 61
e 1 62
e 1 64
e 1 76
e 1 78
e 1 84
e 1 85
e 1 90
e 1 95
e 1 112
e 1 120
e 1 125
e 1 127
e 1 149
e 1 152
e 2 10
e 2 18
e 2 43
e 2 47
e 2 52
e 2 54
e 2 60
e 2 64
e 2 78
e 2 98
e 2 137
e 2 152
e 2 159
e 3 11
e 3 27
e 3 30
e 3 34
e 3 39
e 3 49
e 3 54
e 3 82
e 3 127
e 3 142
e 4 18
e 4 64
e 4 71
e 4 102
e 4 113
e 4 114
e 4 138
e 4 143
e 5 12
e 5 41
e 5 89
e 5 91
e 5 110
e 5 120
e 5 126
e 5 135
e 5 157
e 6 12
e 6 35
e 6 43
e 6 59
e 6 62
e 6 79
e 6 93
e 6 118
e 6 157
e 6 159
e 7 9
e 7 21
e 7 22
e 7 33
e 7 35
e 7 39
e 7 43
e 7 67
e 7 70
e 7 76
e 7 116
e 7 118
e 7 130
e 7 155
e 8 10
e 8 55
e 8 70
e 8 73
e 8 78
e 8 81
e 8 133
e 8 146
e 8 147
e 9 13
e 9 26
e 9 30
e 9 56
e 9 62
e 9 66
e 9 71
e 9 95
e 9 107
e 9 127
e 9 156
e 10 14
e 10 21
e 10 22
e 10 32
e 10 51
e 10 122
e 10 141
e 11 15
e 11 25
e 11 31
e 11 39
e 11 50
e 11 57
e 11 99
e 11 113
e 11 128
e 12 19
e 12 21
e 12 50
e 12 51
e 12 69
e 12 79
e 12 102
e 12 107
e 12 122
e 12 133
e 12 138
e 12 147
e 12 158
e 13 43
e 13 99
e 13 100
e 13 131
e 13 143
e 13 145
e 14 38
e 14 87
e 14 94
e 14 119
e 14 123
e 14 140
e 14 145
e 14 151
e 15 18
e 15 54
e 15 88
e 15 109
e 15 114
e 15 149
e 16 23
e 16 37
e 16 43
e 16 51
e 16 54
e 16 55
e 16 74
e 16 90
e 16 149
e 17 27
e 17 40
e 17 42
e 17 49
e 17 60
e 17 90
e 17 102
e 17 103
e 17 124
e 17 136
e 18 26
e 18 37
e 18 53
e 18 58
e 18 63
e 18 76
e 18 85
e 18 99
e 18 100
e 18 105
e 18 122
e 18 131
e 19 30
e 19 31
e 19 56
e 19 67
e 19 76
e 19 89
e 19 94
e 19 101
e 19 118
e 19 136
e 19 141
e 19 143
e 19 154
e 19 156
e 20 26
e 20 32
e 20 33
e 20 46
e 20 60
e 20 95
e 20 114
e 20 124
e 20 132
e 20 135
e 20 143
e 20 144
e 20 145
e 21 35
e 21 38
e 21 63
e 21 77
e 21 82
e 21 99
e 21 117
e 21 119
e 21 147
e 22 27
e 22 57
e 22 67
e 22 72
e 22 143
e 22 152
e 22 154
e 22 159
e 23 39
e 23 53
e 23 58
e 23 59
e 23 90
e 23 106
e 23 118
e 24 46
e 24 69
e 24 75
e 24 104
e 24 116
e 24 121
e 24 139
e 24 157
e 25 47
e 25 96
e 25 109
e 25 118
e 26 32
e 26 58
e 26 64
e 26 78
e 26 101
e 26 114
e 26 143
e 27 34
e 27 46
e 27 58
e 27 74
e 27 76
e 27 100
e 27 116
e 27 135
e 27 136
e 28 53
e 28 56
e 28 58
e 28 79
e 28 96
e 28 110
e 28 147
e 28 156
e 29 40
e 29 46
e 29 75
e 29 81
e 29 104
e 29 112
e 29 156
e 30 69
e 30 107
e 30 129
e 30 149
e 31 90
e 31 96
e 31 103
e 31 135
e 31 148
e 31 158
e 32 51
e 32 88
e 32 97
e 32 134
e 33 36
e 33 63
e 33 87
e 33 88
e 33 99
e 33 117
e 33 127
e 33 133
e 34 52
e 34 62
e 34 70
e 34 115
e 34 117
e 34 125
e 34 130
e 34 136
e 34 142
e 34 144
e 34 151
e 35 36
e 35 62
e 35 67
e 35 91
e 35 101
e 35 103
e 35 105
e 35 115
e 35 121
e 35 125
e 35 130
e 35 147
e 35 160
e 36 65
e 36 82
e 36 87
e 36 112
e 36 116
e 36 122
e 36 127
e 36 128
e 37 44
e 37 49
e 37 53
e 37 54
e 37 55
e 37 61
e 37 80
e 37 91
e 37 93
e 37 98
e 37 107
e 37 113
e 37 115
e 37 123
e 37 156
e 38 39
e 38 40
e 38 104
e 38 148
e 39 64
e 39 75
e 39 91
e 39 97
e 39 103
e 39 131
e 39 137
e 39 149
e 39 151
e 40 42
e 40 58
e 40 59
e 40 60
e 40 63
e 40 64
e 40 76
e 40 135
e 41 44
e 41 53
e 41 56
e 41 101
e 41 139
e 42 51
e 42 56
e 42 61
e 42 63
e 42 88
e 42 89
e 42 95
e 42 100
e 42 103
e 43 93
e 43 122
e 43 128
e 43 156
e 44 48
e 44 57
e 44 65
e 44 66
e 44 67
e 44 71
e 44 103
e 44 110
e 44 117
e 44 121
e 44 153
e 44 157
e 45 47
e 45 49
e 45 60
e 45 68
e 45 84
e 45 102
e 45 104
e 45 124
e 45 125
e 45 132
e 46 56
e 46 83
e 46 91
e 46 103
e 46 105
e 46 110
e 47 61
e 47 123
e 47 134
e 47 140
e 47 150
e 48 51
e 48 92
e 48 93
e 48 101
e 48 116
e 48 126
e 48 138
e 48 148
e 48 159
e 49 66
e 49 97
e 49 104
e 49 115
e 49 133
e 49 142
e 49 157
e 50 55
e 50 68
e 50 80
e 50 121
e 50 125
e 50 131
e 51 85
e 51 95
e 51 104
e 51 146
e 51 151
e 52 99
e 52 126
e 52 131
e 52 149
e 53 63
e 53 77
e 53 100
e 53 101
e 54 69
e 54 73
e 54 80
e 54 86
e 54 137
e 54 146
e 55 83
e 55 100
e 55 114
e 55 129
e 55 136
e 56 58
e 56 83
e 56 96
e 56 153
e 57 77
e 57 116
e 57 131
e 57 146
e 58 66
e 58 71
e 58 80
e 58 85
e 58 100
e 58 102
e 58 105
e 58 115
e 58 120
e 58 148
e 58 152
e 59 70
e 59 71
e 59 84
e 59 97
e 59 110
e 59 120
e 59 143
e 59 147
e 60 63
e 60 70
e 60 90
e 60 91
e 60 109
e 60 115
e 60 159
e 61 63
e 61 87
e 61 94
e 61 95
e 61 98
e 61 100
e 61 131
e 61 153
e 62 78
e 62 81
e 62 101
e 62 105
e 62 111
e 62 113
e 62 123
e 62 138
e 62 160
e 63 74
e 63 75
e 63 86
e 63 116
e 63 128
e 64 83
e 64 88
e 64 98
e 64 106
e 64 127
e 64 147
e 65 75
e 65 78
e 65 83
e 65 96
e 65 97
e 65 100
e 65 110
e 65 140
e 65 146
e 65 151
e 65 153
e 66 100
e 66 108
e 66 127
e 66 150
e 67 74
e 67 97
e 67 107
e 67 109
e 67 159
e 68 98
e 68 105
e 68 131
e 68 141
e 69 76
e 69 81
e 69 111
e 69 119
e 69 137
e 69 155
e 70 71
e 70 94
e 70 99
e 70 109
e 70 114
e 70 133
e 71 75
e 71 122
e 71 127
e 71 158
e 72 73
e 72 77
e 72 99
e 72 129
e 72 130
e 72 133
e 73 91
e 73 96
e 73 99
e 73 106
e 73 117
e 73 135
e 74 93
e 74 96
e 74 106
e 74 113
e 74 123
e 74 127
e 74 139
e 74 140
e 74 143
e 74 146
e 74 152
e 75 91
e 75 104
e 75 148
e 75 159
e 76 100
e 76 122
e 76 150
e 77 133
e 78 94
e 78 106
e 78 119
e 78 123
e 78 124
e 78 138
e 78 139
e 78 149
e 79 88
e 80 107
e 80 111
e 80 123
e 80 135
e 80 140
e 80 155
e 80 158
e 81 84
e 81 86
e 81 89
e 81 107
e 81 108
e 81 119
e 81 123
e 81 153
e 82 134
e 82 137
e 83 88
e 83 95
e 83 100
e 83 112
e 83 114
e 83 139
e 83 140
e 83 155
e 84 99
e 84 100
e 84 125
e 85 89
e 85 92
e 85 102
e 85 118
e 85 120
e 85 132
e 85 159
e 85 160
e 86 92
e 86 99
e 86 128
e 86 139
e 86 144
e 86 146
e 86 160
e 87 109
e 87 110
e 87 122
e 87 129
e 88 97
e 88 101
e 88 115
e 88 116
e 88 126
e 88 158
e 88 160
e 89 110
e 90 152
e 90 153
e 91 92
e 91 106
e 91 125
e 91 143
e 92 97
e 92 98
e 92 118
e 92 131
e 92 140
e 92 148
e 93 113
e 94 105
e 94 120
e 94 147
e 94 156
e 94 158
e 95 96
e 95 100
e 96 99
e 96 104
e 96 123
e 96 129
e 96 138
e 96 148
e 97 124
e 97 130
e 97 152
e 97 157
e 98 101
e 98 144
e 99 104
e 99 120
e 99 138
e 99 139
e 100 133
e 100 134
e 100 150
e 100 152
e 101 122
e 101 130
e 101 153
e 102 103
e 102 106
e 102 132
e 102 139
e 102 142
e 103 122
e 103 139
e 103 142
e 103 145
e 103 148
e 103 149
e 103 154
e 104 112
e 104 114
e 104 119
e 105 116
e 105 117
e 105 134
e 106 116
e 106 128
e 106 137
e 106 152
e 107 132
e 107 133
e 107 149
e 107 153
e 108 131
e 108 137
e 108 152
e 109 122
e 109 150
e 110 127
e 110 136
e 110 154
e 111 131
e 112 145
e 112 154
e 113 117
e 113 124
e 113 133
e 113 135
e 113 152
e 114 127
e 114 144
e 115 128
e 115 133
e 115 142
e 115 146
e 116 126
e 116 127
e 116 130
e 117 138
e 117 141
e 118 147
e 118 157
e 118 160
e 119 132
e 119 136
e 119 144
e 120 124
e 120 150
e 120 155
e 121 137
e 122 137
e 122 151
e 122 154
e 122 160
e 123 125
e 123 158
e 124 136
e 124 140
e 125 126
e 126 131
e 127 130
e 127 138
e 128 157
e 129 138
e 129 156
e 129 157
e 130 158
e 130 160
e 131 138
e 131 140
e 131 157
e 132 147
e 132 148
e 132 158
e 133 135
e 136 139
e 136 148
e 136 154
e 137 144
e 137 158
e 138 153
e 138 157
e 139 148
e 139 152
e 140 157
e 140 159
e 142 145
e 143 151
e 143 159
e 144 146
e 144 157
e 145 156
e 146 152
e 148 158
e 158 160
